<number of tasks>
89

<cycle time>
20

<task times>
1 1
2 2
3 3
4 4
5 5
6 6
7 7
8 8
9 9
10 10
11 1
12 2
13 3
14 4
15 5
16 6
17 7
18 8
19 9
20 10
21 1
22 2
23 3
24 4
25 5
26 6
27 7
28 8
29 9
30 10
31 1
32 2
33 3
34 4
35 5
36 6
37 7
38 8
39 9
40 10
41 1
42 2
43 3
44 4
45 5
46 6
47 7
48 8
49 9
50 10
51 1
52 2
53 3
54 4
55 5
56 6
57 7
58 8
59 9
60 10
61 1
62 2
63 3
64 4
65 5
66 6
67 7
68 8
69 9
70 10
71 1
72 2
73 3
74 4
75 5
76 6
77 7
78 8
79 9
80 10
81 1
82 2
83 3
84 4
85 5
86 6
87 7
88 8
89 9

<precedence relations>
1,2
2,3
3,4
4,5
4,6
4,7
4,8
4,9
5,10
6,11
7,12
8,18
9,18
10,14
11,12
12,13
13,14
14,15
14,16
15,17
16,54
17,18
18,19
18,20
19,22
20,21
20,28
21,54
22,23
23,24
24,25
25,26
25,27
25,29
26,37
27,33
28,29
29,31
30,54
31,32
32,33
33,34
34,35
35,36
35,37
36,38
37,38
38,39
39,40
39,41
39,42
39,43
40,44
41,53
42,53
43,45
44,52
45,46
46,47
47,48
47,49
49,50
50,51
51,52
52,53
53,68
53,69
53,70
53,71
54,55
55,56
56,57
57,58
57,59
57,60
57,61
57,62
57,63
57,64
57,65
57,66
58,67
59,67
60,67
61,67
62,67
63,67
64,67
65,67
66,67
67,73
68,72
69,72
70,72
71,73
72,78
72,80
73,74
74,75
74,76
75,77
76,81
77,78
78,79
79,81
80,81
81,82
81,84
81,85
82,83
83,86
84,86
85,86
86,87
87,88
87,89

<setup times forward>
5,10:1
6,10:1
7,10:1
8,10:1
8,14:1
8,16:1
9,10:1
9,14:1
9,16:1
10,6:1
10,7:1
10,8:1
10,9:1
10,11:1
10,12:1
10,13:1
10,30:1
11,10:1
12,10:1
13,10:1
13,14:1
14,8:1
14,9:1
14,15:1
14,30:1
15,16:1
16,8:1
16,9:1
16,15:1
16,17:1
16,18:1
16,22:1
16,23:1
16,24:1
16,25:1
16,26:1
16,27:1
16,30:1
16,33:1
16,36:1
16,38:1
16,39:1
16,41:1
16,42:1
16,43:1
16,44:1
16,45:1
16,46:1
16,47:1
16,48:1
16,68:1
16,69:1
16,70:1
16,71:1
16,72:1
16,80:1
17,16:1
18,16:1
18,19:1
18,20:1
19,22:1
19,30:1
19,58:1
19,63:1
19,64:1
19,66:1
19,67:1
20,22:1
20,23:1
20,24:1
20,25:1
20,26:1
20,27:1
20,30:1
21,22:1
21,23:1
21,24:1
21,25:1
21,26:1
21,27:1
21,30:1
21,33:1
21,36:1
21,38:1
21,39:1
21,41:1
21,42:1
21,43:1
21,44:1
21,45:1
21,46:1
21,47:1
21,48:1
21,68:1
21,69:1
21,70:1
21,71:1
21,72:1
21,80:1
22,16:1
22,20:1
22,21:1
22,28:1
22,54:1
22,55:1
22,56:1
22,57:1
22,59:1
22,60:1
22,61:1
22,62:1
22,65:1
23,16:1
23,20:1
23,21:1
23,28:1
23,54:1
23,55:1
23,56:1
23,57:1
23,59:1
23,60:1
23,61:1
23,62:1
23,65:1
24,16:1
24,20:1
24,21:1
24,28:1
24,54:1
24,55:1
24,56:1
24,57:1
24,59:1
24,60:1
24,61:1
24,62:1
24,65:1
25,16:1
25,20:1
25,21:1
25,28:1
25,29:1
25,54:1
25,55:1
25,56:1
25,57:1
25,59:1
25,60:1
25,61:1
25,62:1
25,65:1
26,16:1
26,20:1
26,21:1
26,28:1
26,29:1
26,31:1
26,32:1
26,34:1
26,35:1
26,37:1
26,54:1
26,55:1
26,56:1
26,57:1
26,59:1
26,60:1
26,61:1
26,62:1
26,65:1
27,16:1
27,20:1
27,21:1
27,28:1
27,29:1
27,31:1
27,32:1
27,54:1
27,55:1
27,56:1
27,57:1
27,59:1
27,60:1
27,61:1
27,62:1
27,65:1
28,22:1
28,23:1
28,24:1
28,25:1
28,26:1
28,27:1
28,30:1
28,58:1
28,63:1
28,64:1
28,66:1
28,67:1
29,26:1
29,27:1
29,30:1
29,58:1
29,63:1
29,64:1
29,66:1
29,67:1
30,10:1
30,14:1
30,16:1
30,19:1
30,20:1
30,21:1
30,28:1
30,29:1
30,31:1
30,32:1
30,34:1
30,35:1
30,37:1
30,40:1
30,49:1
30,50:1
30,51:1
30,52:1
30,53:1
30,54:1
31,26:1
31,27:1
31,30:1
31,58:1
31,63:1
31,64:1
31,66:1
31,67:1
32,26:1
32,27:1
32,30:1
32,33:1
32,58:1
32,63:1
32,64:1
32,66:1
32,67:1
33,16:1
33,21:1
33,34:1
33,54:1
33,55:1
33,56:1
33,57:1
33,59:1
33,60:1
33,61:1
33,62:1
33,65:1
34,26:1
34,30:1
34,58:1
34,63:1
34,64:1
34,66:1
34,67:1
35,26:1
35,30:1
35,36:1
35,58:1
35,63:1
35,64:1
35,66:1
35,67:1
36,16:1
36,21:1
36,37:1
36,54:1
36,55:1
36,56:1
36,57:1
36,59:1
36,60:1
36,61:1
36,62:1
36,65:1
37,30:1
37,36:1
37,38:1
37,58:1
37,63:1
37,64:1
37,66:1
37,67:1
38,16:1
38,21:1
38,54:1
38,55:1
38,56:1
38,57:1
38,59:1
38,60:1
38,61:1
38,62:1
38,65:1
39,16:1
39,21:1
39,40:1
39,54:1
39,55:1
39,56:1
39,57:1
39,59:1
39,60:1
39,61:1
39,62:1
39,65:1
40,30:1
40,41:1
40,42:1
40,43:1
40,44:1
40,45:1
40,46:1
40,47:1
40,48:1
40,58:1
40,63:1
40,64:1
40,66:1
40,67:1
41,16:1
41,21:1
41,40:1
41,49:1
41,50:1
41,51:1
41,52:1
41,53:1
41,54:1
41,55:1
41,56:1
41,57:1
41,59:1
41,60:1
41,61:1
41,62:1
41,65:1
42,16:1
42,21:1
42,40:1
42,49:1
42,50:1
42,51:1
42,52:1
42,53:1
42,54:1
42,55:1
42,56:1
42,57:1
42,59:1
42,60:1
42,61:1
42,62:1
42,65:1
43,16:1
43,21:1
43,40:1
43,54:1
43,55:1
43,56:1
43,57:1
43,59:1
43,60:1
43,61:1
43,62:1
43,65:1
44,16:1
44,21:1
44,49:1
44,50:1
44,51:1
44,52:1
44,54:1
44,55:1
44,56:1
44,57:1
44,59:1
44,60:1
44,61:1
44,62:1
44,65:1
45,16:1
45,21:1
45,40:1
45,54:1
45,55:1
45,56:1
45,57:1
45,59:1
45,60:1
45,61:1
45,62:1
45,65:1
46,16:1
46,21:1
46,40:1
46,54:1
46,55:1
46,56:1
46,57:1
46,59:1
46,60:1
46,61:1
46,62:1
46,65:1
47,16:1
47,21:1
47,40:1
47,49:1
47,54:1
47,55:1
47,56:1
47,57:1
47,59:1
47,60:1
47,61:1
47,62:1
47,65:1
48,16:1
48,21:1
48,40:1
48,49:1
48,50:1
48,51:1
48,52:1
48,53:1
48,54:1
48,55:1
48,56:1
48,57:1
48,59:1
48,60:1
48,61:1
48,62:1
48,65:1
48,75:1
48,77:1
48,78:1
48,85:1
48,86:1
48,87:1
48,88:1
48,89:1
49,30:1
49,41:1
49,42:1
49,44:1
49,48:1
49,58:1
49,63:1
49,64:1
49,66:1
49,67:1
50,30:1
50,41:1
50,42:1
50,44:1
50,48:1
50,58:1
50,63:1
50,64:1
50,66:1
50,67:1
51,30:1
51,41:1
51,42:1
51,44:1
51,48:1
51,58:1
51,63:1
51,64:1
51,66:1
51,67:1
52,30:1
52,41:1
52,42:1
52,48:1
52,58:1
52,63:1
52,64:1
52,66:1
52,67:1
53,30:1
53,48:1
53,58:1
53,63:1
53,64:1
53,66:1
53,67:1
53,68:1
53,69:1
53,70:1
53,71:1
54,22:1
54,23:1
54,24:1
54,25:1
54,26:1
54,27:1
54,33:1
54,36:1
54,38:1
54,39:1
54,41:1
54,42:1
54,43:1
54,44:1
54,45:1
54,46:1
54,47:1
54,48:1
54,68:1
54,69:1
54,70:1
54,71:1
54,72:1
54,80:1
55,22:1
55,23:1
55,24:1
55,25:1
55,26:1
55,27:1
55,33:1
55,36:1
55,38:1
55,39:1
55,41:1
55,42:1
55,43:1
55,44:1
55,45:1
55,46:1
55,47:1
55,48:1
55,68:1
55,69:1
55,70:1
55,71:1
55,72:1
55,80:1
56,22:1
56,23:1
56,24:1
56,25:1
56,26:1
56,27:1
56,33:1
56,36:1
56,38:1
56,39:1
56,41:1
56,42:1
56,43:1
56,44:1
56,45:1
56,46:1
56,47:1
56,48:1
56,68:1
56,69:1
56,70:1
56,71:1
56,72:1
56,80:1
57,22:1
57,23:1
57,24:1
57,25:1
57,26:1
57,27:1
57,33:1
57,36:1
57,38:1
57,39:1
57,41:1
57,42:1
57,43:1
57,44:1
57,45:1
57,46:1
57,47:1
57,48:1
57,58:1
57,63:1
57,64:1
57,66:1
57,68:1
57,69:1
57,70:1
57,71:1
57,72:1
57,80:1
58,19:1
58,28:1
58,29:1
58,31:1
58,32:1
58,34:1
58,35:1
58,37:1
58,40:1
58,49:1
58,50:1
58,51:1
58,52:1
58,53:1
58,59:1
58,60:1
58,61:1
58,62:1
58,65:1
59,22:1
59,23:1
59,24:1
59,25:1
59,26:1
59,27:1
59,33:1
59,36:1
59,38:1
59,39:1
59,41:1
59,42:1
59,43:1
59,44:1
59,45:1
59,46:1
59,47:1
59,48:1
59,58:1
59,63:1
59,64:1
59,66:1
59,67:1
59,68:1
59,69:1
59,70:1
59,71:1
59,72:1
59,80:1
60,22:1
60,23:1
60,24:1
60,25:1
60,26:1
60,27:1
60,33:1
60,36:1
60,38:1
60,39:1
60,41:1
60,42:1
60,43:1
60,44:1
60,45:1
60,46:1
60,47:1
60,48:1
60,58:1
60,63:1
60,64:1
60,66:1
60,67:1
60,68:1
60,69:1
60,70:1
60,71:1
60,72:1
60,80:1
61,22:1
61,23:1
61,24:1
61,25:1
61,26:1
61,27:1
61,33:1
61,36:1
61,38:1
61,39:1
61,41:1
61,42:1
61,43:1
61,44:1
61,45:1
61,46:1
61,47:1
61,48:1
61,58:1
61,63:1
61,64:1
61,66:1
61,67:1
61,68:1
61,69:1
61,70:1
61,71:1
61,72:1
61,80:1
62,22:1
62,23:1
62,24:1
62,25:1
62,26:1
62,27:1
62,33:1
62,36:1
62,38:1
62,39:1
62,41:1
62,42:1
62,43:1
62,44:1
62,45:1
62,46:1
62,47:1
62,48:1
62,58:1
62,63:1
62,64:1
62,66:1
62,67:1
62,68:1
62,69:1
62,70:1
62,71:1
62,72:1
62,80:1
63,19:1
63,28:1
63,29:1
63,31:1
63,32:1
63,34:1
63,35:1
63,37:1
63,40:1
63,49:1
63,50:1
63,51:1
63,52:1
63,53:1
63,59:1
63,60:1
63,61:1
63,62:1
63,65:1
64,19:1
64,28:1
64,29:1
64,31:1
64,32:1
64,34:1
64,35:1
64,37:1
64,40:1
64,49:1
64,50:1
64,51:1
64,52:1
64,53:1
64,59:1
64,60:1
64,61:1
64,62:1
64,65:1
65,22:1
65,23:1
65,24:1
65,25:1
65,26:1
65,27:1
65,33:1
65,36:1
65,38:1
65,39:1
65,41:1
65,42:1
65,43:1
65,44:1
65,45:1
65,46:1
65,47:1
65,48:1
65,58:1
65,63:1
65,64:1
65,66:1
65,67:1
65,68:1
65,69:1
65,70:1
65,71:1
65,72:1
65,80:1
66,19:1
66,28:1
66,29:1
66,31:1
66,32:1
66,34:1
66,35:1
66,37:1
66,40:1
66,49:1
66,50:1
66,51:1
66,52:1
66,53:1
66,59:1
66,60:1
66,61:1
66,62:1
66,65:1
67,19:1
67,28:1
67,29:1
67,31:1
67,32:1
67,34:1
67,35:1
67,37:1
67,40:1
67,49:1
67,50:1
67,51:1
67,52:1
67,53:1
68,16:1
68,21:1
68,54:1
68,55:1
68,56:1
68,57:1
68,59:1
68,60:1
68,61:1
68,62:1
68,65:1
68,75:1
68,77:1
69,16:1
69,21:1
69,54:1
69,55:1
69,56:1
69,57:1
69,59:1
69,60:1
69,61:1
69,62:1
69,65:1
69,75:1
69,77:1
70,16:1
70,21:1
70,54:1
70,55:1
70,56:1
70,57:1
70,59:1
70,60:1
70,61:1
70,62:1
70,65:1
70,75:1
70,77:1
71,16:1
71,21:1
71,54:1
71,55:1
71,56:1
71,57:1
71,59:1
71,60:1
71,61:1
71,62:1
71,65:1
72,16:1
72,21:1
72,54:1
72,55:1
72,56:1
72,57:1
72,59:1
72,60:1
72,61:1
72,62:1
72,65:1
72,75:1
72,77:1
72,78:1
74,75:1
75,48:1
75,68:1
75,69:1
75,70:1
75,72:1
75,76:1
75,80:1
76,75:1
76,77:1
76,78:1
77,48:1
77,68:1
77,69:1
77,70:1
77,72:1
77,76:1
77,80:1
78,48:1
78,76:1
78,79:1
78,80:1
80,16:1
80,21:1
80,54:1
80,55:1
80,56:1
80,57:1
80,59:1
80,60:1
80,61:1
80,62:1
80,65:1
80,75:1
80,77:1
80,78:1
81,85:1
82,85:1
83,85:1
83,86:1
84,85:1
84,86:1
85,48:1
85,82:1
85,83:1
85,84:1
86,48:1
87,48:1
88,48:1
89,48:1

<setup times backward>
6,10:1
7,10:1
8,10:1
8,14:1
8,16:1
9,10:1
9,14:1
9,16:1
11,10:1
12,10:1
13,10:1
15,10:1
15,14:1
15,16:1
17,10:1
17,14:1
17,16:1
18,10:1
18,14:1
18,16:1
22,10:1
22,14:1
22,16:1
22,19:1
22,20:1
22,21:1
22,28:1
22,54:1
22,55:1
22,56:1
22,57:1
22,59:1
22,60:1
22,61:1
22,62:1
22,65:1
23,10:1
23,14:1
23,16:1
23,19:1
23,20:1
23,21:1
23,28:1
23,54:1
23,55:1
23,56:1
23,57:1
23,59:1
23,60:1
23,61:1
23,62:1
23,65:1
24,10:1
24,14:1
24,16:1
24,19:1
24,20:1
24,21:1
24,28:1
24,54:1
24,55:1
24,56:1
24,57:1
24,59:1
24,60:1
24,61:1
24,62:1
24,65:1
25,10:1
25,14:1
25,16:1
25,19:1
25,20:1
25,21:1
25,28:1
25,54:1
25,55:1
25,56:1
25,57:1
25,59:1
25,60:1
25,61:1
25,62:1
25,65:1
26,10:1
26,14:1
26,16:1
26,19:1
26,20:1
26,21:1
26,28:1
26,29:1
26,31:1
26,32:1
26,34:1
26,35:1
26,54:1
26,55:1
26,56:1
26,57:1
26,59:1
26,60:1
26,61:1
26,62:1
26,65:1
27,10:1
27,14:1
27,16:1
27,19:1
27,20:1
27,21:1
27,28:1
27,29:1
27,31:1
27,32:1
27,54:1
27,55:1
27,56:1
27,57:1
27,59:1
27,60:1
27,61:1
27,62:1
27,65:1
30,10:1
30,14:1
30,16:1
30,19:1
30,20:1
30,21:1
30,28:1
30,29:1
30,31:1
30,32:1
30,34:1
30,35:1
30,37:1
30,40:1
30,49:1
30,50:1
30,51:1
30,52:1
30,53:1
33,10:1
33,14:1
33,16:1
33,19:1
33,20:1
33,21:1
33,28:1
33,29:1
33,31:1
33,32:1
33,54:1
33,55:1
33,56:1
33,57:1
33,59:1
33,60:1
33,61:1
33,62:1
33,65:1
36,10:1
36,14:1
36,16:1
36,19:1
36,20:1
36,21:1
36,28:1
36,29:1
36,31:1
36,32:1
36,34:1
36,35:1
36,37:1
36,54:1
36,55:1
36,56:1
36,57:1
36,59:1
36,60:1
36,61:1
36,62:1
36,65:1
38,10:1
38,14:1
38,16:1
38,19:1
38,20:1
38,21:1
38,28:1
38,29:1
38,31:1
38,32:1
38,34:1
38,35:1
38,37:1
38,54:1
38,55:1
38,56:1
38,57:1
38,59:1
38,60:1
38,61:1
38,62:1
38,65:1
39,10:1
39,14:1
39,16:1
39,19:1
39,20:1
39,21:1
39,28:1
39,29:1
39,31:1
39,32:1
39,34:1
39,35:1
39,37:1
39,54:1
39,55:1
39,56:1
39,57:1
39,59:1
39,60:1
39,61:1
39,62:1
39,65:1
41,10:1
41,14:1
41,16:1
41,19:1
41,20:1
41,21:1
41,28:1
41,29:1
41,31:1
41,32:1
41,34:1
41,35:1
41,37:1
41,40:1
41,49:1
41,50:1
41,51:1
41,52:1
41,54:1
41,55:1
41,56:1
41,57:1
41,59:1
41,60:1
41,61:1
41,62:1
41,65:1
42,10:1
42,14:1
42,16:1
42,19:1
42,20:1
42,21:1
42,28:1
42,29:1
42,31:1
42,32:1
42,34:1
42,35:1
42,37:1
42,40:1
42,49:1
42,50:1
42,51:1
42,52:1
42,54:1
42,55:1
42,56:1
42,57:1
42,59:1
42,60:1
42,61:1
42,62:1
42,65:1
43,10:1
43,14:1
43,16:1
43,19:1
43,20:1
43,21:1
43,28:1
43,29:1
43,31:1
43,32:1
43,34:1
43,35:1
43,37:1
43,40:1
43,54:1
43,55:1
43,56:1
43,57:1
43,59:1
43,60:1
43,61:1
43,62:1
43,65:1
44,10:1
44,14:1
44,16:1
44,19:1
44,20:1
44,21:1
44,28:1
44,29:1
44,31:1
44,32:1
44,34:1
44,35:1
44,37:1
44,40:1
44,49:1
44,50:1
44,51:1
44,54:1
44,55:1
44,56:1
44,57:1
44,59:1
44,60:1
44,61:1
44,62:1
44,65:1
45,10:1
45,14:1
45,16:1
45,19:1
45,20:1
45,21:1
45,28:1
45,29:1
45,31:1
45,32:1
45,34:1
45,35:1
45,37:1
45,40:1
45,54:1
45,55:1
45,56:1
45,57:1
45,59:1
45,60:1
45,61:1
45,62:1
45,65:1
46,10:1
46,14:1
46,16:1
46,19:1
46,20:1
46,21:1
46,28:1
46,29:1
46,31:1
46,32:1
46,34:1
46,35:1
46,37:1
46,40:1
46,54:1
46,55:1
46,56:1
46,57:1
46,59:1
46,60:1
46,61:1
46,62:1
46,65:1
47,10:1
47,14:1
47,16:1
47,19:1
47,20:1
47,21:1
47,28:1
47,29:1
47,31:1
47,32:1
47,34:1
47,35:1
47,37:1
47,40:1
47,54:1
47,55:1
47,56:1
47,57:1
47,59:1
47,60:1
47,61:1
47,62:1
47,65:1
48,10:1
48,14:1
48,16:1
48,19:1
48,20:1
48,21:1
48,28:1
48,29:1
48,31:1
48,32:1
48,34:1
48,35:1
48,37:1
48,40:1
48,49:1
48,50:1
48,51:1
48,52:1
48,53:1
48,54:1
48,55:1
48,56:1
48,57:1
48,59:1
48,60:1
48,61:1
48,62:1
48,65:1
48,75:1
48,77:1
48,78:1
48,85:1
48,86:1
48,87:1
48,88:1
48,89:1
58,10:1
58,14:1
58,16:1
58,19:1
58,20:1
58,21:1
58,28:1
58,29:1
58,31:1
58,32:1
58,34:1
58,35:1
58,37:1
58,40:1
58,49:1
58,50:1
58,51:1
58,52:1
58,53:1
58,54:1
58,55:1
58,56:1
58,57:1
58,59:1
58,60:1
58,61:1
58,62:1
58,65:1
63,10:1
63,14:1
63,16:1
63,19:1
63,20:1
63,21:1
63,28:1
63,29:1
63,31:1
63,32:1
63,34:1
63,35:1
63,37:1
63,40:1
63,49:1
63,50:1
63,51:1
63,52:1
63,53:1
63,54:1
63,55:1
63,56:1
63,57:1
63,59:1
63,60:1
63,61:1
63,62:1
63,65:1
64,10:1
64,14:1
64,16:1
64,19:1
64,20:1
64,21:1
64,28:1
64,29:1
64,31:1
64,32:1
64,34:1
64,35:1
64,37:1
64,40:1
64,49:1
64,50:1
64,51:1
64,52:1
64,53:1
64,54:1
64,55:1
64,56:1
64,57:1
64,59:1
64,60:1
64,61:1
64,62:1
64,65:1
66,10:1
66,14:1
66,16:1
66,19:1
66,20:1
66,21:1
66,28:1
66,29:1
66,31:1
66,32:1
66,34:1
66,35:1
66,37:1
66,40:1
66,49:1
66,50:1
66,51:1
66,52:1
66,53:1
66,54:1
66,55:1
66,56:1
66,57:1
66,59:1
66,60:1
66,61:1
66,62:1
66,65:1
67,10:1
67,14:1
67,16:1
67,19:1
67,20:1
67,21:1
67,28:1
67,29:1
67,31:1
67,32:1
67,34:1
67,35:1
67,37:1
67,40:1
67,49:1
67,50:1
67,51:1
67,52:1
67,53:1
67,54:1
67,55:1
67,56:1
67,57:1
67,59:1
67,60:1
67,61:1
67,62:1
67,65:1
68,10:1
68,14:1
68,16:1
68,19:1
68,20:1
68,21:1
68,28:1
68,29:1
68,31:1
68,32:1
68,34:1
68,35:1
68,37:1
68,40:1
68,49:1
68,50:1
68,51:1
68,52:1
68,53:1
68,54:1
68,55:1
68,56:1
68,57:1
68,59:1
68,60:1
68,61:1
68,62:1
68,65:1
68,75:1
68,77:1
69,10:1
69,14:1
69,16:1
69,19:1
69,20:1
69,21:1
69,28:1
69,29:1
69,31:1
69,32:1
69,34:1
69,35:1
69,37:1
69,40:1
69,49:1
69,50:1
69,51:1
69,52:1
69,53:1
69,54:1
69,55:1
69,56:1
69,57:1
69,59:1
69,60:1
69,61:1
69,62:1
69,65:1
69,75:1
69,77:1
70,10:1
70,14:1
70,16:1
70,19:1
70,20:1
70,21:1
70,28:1
70,29:1
70,31:1
70,32:1
70,34:1
70,35:1
70,37:1
70,40:1
70,49:1
70,50:1
70,51:1
70,52:1
70,53:1
70,54:1
70,55:1
70,56:1
70,57:1
70,59:1
70,60:1
70,61:1
70,62:1
70,65:1
70,75:1
70,77:1
71,10:1
71,14:1
71,16:1
71,19:1
71,20:1
71,21:1
71,28:1
71,29:1
71,31:1
71,32:1
71,34:1
71,35:1
71,37:1
71,40:1
71,49:1
71,50:1
71,51:1
71,52:1
71,53:1
71,54:1
71,55:1
71,56:1
71,57:1
71,59:1
71,60:1
71,61:1
71,62:1
71,65:1
72,10:1
72,14:1
72,16:1
72,19:1
72,20:1
72,21:1
72,28:1
72,29:1
72,31:1
72,32:1
72,34:1
72,35:1
72,37:1
72,40:1
72,49:1
72,50:1
72,51:1
72,52:1
72,53:1
72,54:1
72,55:1
72,56:1
72,57:1
72,59:1
72,60:1
72,61:1
72,62:1
72,65:1
72,75:1
72,77:1
73,10:1
73,14:1
73,16:1
73,19:1
73,20:1
73,21:1
73,28:1
73,29:1
73,31:1
73,32:1
73,34:1
73,35:1
73,37:1
73,40:1
73,49:1
73,50:1
73,51:1
73,52:1
73,53:1
73,54:1
73,55:1
73,56:1
73,57:1
73,59:1
73,60:1
73,61:1
73,62:1
73,65:1
74,10:1
74,14:1
74,16:1
74,19:1
74,20:1
74,21:1
74,28:1
74,29:1
74,31:1
74,32:1
74,34:1
74,35:1
74,37:1
74,40:1
74,49:1
74,50:1
74,51:1
74,52:1
74,53:1
74,54:1
74,55:1
74,56:1
74,57:1
74,59:1
74,60:1
74,61:1
74,62:1
74,65:1
76,10:1
76,14:1
76,16:1
76,19:1
76,20:1
76,21:1
76,28:1
76,29:1
76,31:1
76,32:1
76,34:1
76,35:1
76,37:1
76,40:1
76,49:1
76,50:1
76,51:1
76,52:1
76,53:1
76,54:1
76,55:1
76,56:1
76,57:1
76,59:1
76,60:1
76,61:1
76,62:1
76,65:1
76,75:1
76,77:1
76,78:1
79,10:1
79,14:1
79,16:1
79,19:1
79,20:1
79,21:1
79,28:1
79,29:1
79,31:1
79,32:1
79,34:1
79,35:1
79,37:1
79,40:1
79,49:1
79,50:1
79,51:1
79,52:1
79,53:1
79,54:1
79,55:1
79,56:1
79,57:1
79,59:1
79,60:1
79,61:1
79,62:1
79,65:1
79,75:1
79,77:1
79,78:1
80,10:1
80,14:1
80,16:1
80,19:1
80,20:1
80,21:1
80,28:1
80,29:1
80,31:1
80,32:1
80,34:1
80,35:1
80,37:1
80,40:1
80,49:1
80,50:1
80,51:1
80,52:1
80,53:1
80,54:1
80,55:1
80,56:1
80,57:1
80,59:1
80,60:1
80,61:1
80,62:1
80,65:1
80,75:1
80,77:1
80,78:1
81,10:1
81,14:1
81,16:1
81,19:1
81,20:1
81,21:1
81,28:1
81,29:1
81,31:1
81,32:1
81,34:1
81,35:1
81,37:1
81,40:1
81,49:1
81,50:1
81,51:1
81,52:1
81,53:1
81,54:1
81,55:1
81,56:1
81,57:1
81,59:1
81,60:1
81,61:1
81,62:1
81,65:1
81,75:1
81,77:1
81,78:1
82,10:1
82,14:1
82,16:1
82,19:1
82,20:1
82,21:1
82,28:1
82,29:1
82,31:1
82,32:1
82,34:1
82,35:1
82,37:1
82,40:1
82,49:1
82,50:1
82,51:1
82,52:1
82,53:1
82,54:1
82,55:1
82,56:1
82,57:1
82,59:1
82,60:1
82,61:1
82,62:1
82,65:1
82,75:1
82,77:1
82,78:1
82,85:1
83,10:1
83,14:1
83,16:1
83,19:1
83,20:1
83,21:1
83,28:1
83,29:1
83,31:1
83,32:1
83,34:1
83,35:1
83,37:1
83,40:1
83,49:1
83,50:1
83,51:1
83,52:1
83,53:1
83,54:1
83,55:1
83,56:1
83,57:1
83,59:1
83,60:1
83,61:1
83,62:1
83,65:1
83,75:1
83,77:1
83,78:1
83,85:1
84,10:1
84,14:1
84,16:1
84,19:1
84,20:1
84,21:1
84,28:1
84,29:1
84,31:1
84,32:1
84,34:1
84,35:1
84,37:1
84,40:1
84,49:1
84,50:1
84,51:1
84,52:1
84,53:1
84,54:1
84,55:1
84,56:1
84,57:1
84,59:1
84,60:1
84,61:1
84,62:1
84,65:1
84,75:1
84,77:1
84,78:1
84,85:1

<end>

<optimal SALBP-1 value>
25


<rand seed>
467321153

